c pcminimize - minimizing a CNF with respect to propagation completeness by iterative removing of absorbed clauses.
c Petr Kucera, 2016-2021
c Version 2.7, revision 59, git hash 4910a71, date 2024-07-16 20:17:42 +0200
p cnf 412 624
51 -251 0
65 -251 0
252 -253 0
-65 -253 0
251 253 -254 0
-85 -255 0
126 -255 0
256 -257 0
-126 -257 0
255 257 -258 0
254 -260 0
258 -260 0
145 -260 0
259 -260 0
260 -262 0
261 -262 0
262 -263 0
236 -263 0
256 -264 0
145 -264 0
85 -265 0
-145 -265 0
264 265 -266 0
266 -267 0
46 -267 0
256 -269 0
268 -269 0
269 -270 0
-46 -270 0
267 270 -271 0
271 -272 0
-249 -272 0
272 -275 0
252 -275 0
273 -275 0
274 -275 0
275 -276 0
-236 -276 0
263 276 -277 0
278 -279 0
279 -280 0
222 -280 0
278 -281 0
215 -281 0
220 -282 0
-215 -282 0
283 -284 0
-222 -284 0
250 -286 0
287 -288 0
-250 -288 0
5 -290 0
128 -290 0
290 -292 0
291 -292 0
292 -293 0
34 -293 0
5 -294 0
291 -294 0
294 -295 0
128 -295 0
291 -296 0
5 -296 0
-123 -297 0
-5 -297 0
296 297 -298 0
298 -299 0
-128 -299 0
295 299 -300 0
300 -301 0
-34 -301 0
293 301 -302 0
9 -303 0
-139 -303 0
152 -303 0
304 -308 0
305 -308 0
306 -308 0
307 -308 0
277 -309 0
285 -309 0
289 -309 0
302 -309 0
308 -309 0
160 -330 0
51 -332 0
331 -332 0
332 -333 0
65 -333 0
-139 -334 0
252 -334 0
334 -335 0
-65 -335 0
333 335 -336 0
336 -337 0
152 -337 0
51 -338 0
65 -338 0
139 -338 0
338 -339 0
-152 -339 0
337 339 -340 0
9 -341 0
145 -341 0
236 -341 0
340 -342 0
302 -342 0
258 -342 0
341 -342 0
259 -342 0
342 -343 0
249 -343 0
51 -344 0
145 -344 0
258 -345 0
344 -345 0
259 -345 0
345 -346 0
236 -346 0
271 -347 0
252 -347 0
274 -347 0
347 -348 0
-236 -348 0
346 348 -349 0
331 -350 0
152 -350 0
139 -351 0
-152 -351 0
350 351 -352 0
349 -353 0
352 -353 0
353 -354 0
65 -354 0
258 -355 0
145 -355 0
259 -355 0
355 -356 0
236 -356 0
271 -357 0
274 -357 0
357 -358 0
-236 -358 0
356 358 -359 0
-139 -360 0
152 -360 0
359 -361 0
360 -361 0
361 -362 0
252 -362 0
362 -363 0
-65 -363 0
354 363 -364 0
291 -365 0
9 -365 0
-123 -366 0
-9 -366 0
365 366 -367 0
367 -368 0
290 -368 0
368 -369 0
34 -369 0
367 -370 0
5 -370 0
370 -371 0
128 -371 0
298 -372 0
9 -372 0
-123 -374 0
373 -374 0
374 -375 0
-9 -375 0
372 375 -376 0
376 -377 0
-128 -377 0
371 377 -378 0
378 -379 0
-34 -379 0
369 379 -380 0
364 -381 0
380 -381 0
381 -382 0
-249 -382 0
306 -385 0
305 -385 0
304 -385 0
307 -385 0
383 -386 0
285 -386 0
289 -386 0
385 -386 0
-160 -406 0
407 -408 0
1 0
2 0
-3 0
-4 0
6 0
-7 0
-8 0
10 0
-11 0
-12 0
13 0
14 0
15 0
-16 0
17 0
18 0
19 0
20 0
21 0
22 0
-23 0
24 0
-25 0
26 0
27 0
-28 0
-29 0
30 0
-31 0
32 0
33 0
35 0
36 0
-37 0
38 0
39 0
-40 0
-41 0
-42 0
43 0
-44 0
45 0
47 0
48 0
-49 0
-50 0
52 0
53 0
54 0
55 0
-56 0
-57 0
58 0
59 0
-60 0
-61 0
62 0
-63 0
64 0
66 0
-67 0
-68 0
69 0
-70 0
71 0
72 0
-73 0
74 0
-75 0
-76 0
77 0
-78 0
79 0
-80 0
81 0
-82 0
-83 0
84 0
86 0
87 0
88 0
89 0
90 0
-91 0
92 0
93 0
94 0
-95 0
-96 0
97 0
98 0
99 0
100 0
101 0
102 0
-103 0
104 0
105 0
106 0
107 0
108 0
109 0
110 0
111 0
112 0
113 0
114 0
-115 0
-116 0
-117 0
-118 0
119 0
-120 0
121 0
-122 0
124 0
125 0
-127 0
129 0
-130 0
-131 0
133 0
-134 0
-135 0
136 0
-137 0
138 0
-140 0
142 0
-143 0
144 0
-146 0
-147 0
148 0
149 0
-150 0
151 0
153 0
154 0
-155 0
156 0
-157 0
-158 0
159 0
161 0
-162 0
163 0
164 0
165 0
-166 0
-167 0
-168 0
169 0
-170 0
171 0
-172 0
173 0
-174 0
175 0
176 0
177 0
-178 0
-179 0
180 0
181 0
182 0
-183 0
184 0
-185 0
186 0
-187 0
188 0
-189 0
190 0
191 0
-192 0
193 0
194 0
195 0
196 0
-199 0
-200 0
-201 0
202 0
-203 0
204 0
205 0
206 0
-207 0
-208 0
209 0
211 0
-212 0
-213 0
-214 0
-216 0
-217 0
-218 0
-219 0
221 0
-223 0
224 0
-225 0
226 0
-227 0
228 0
229 0
-230 0
231 0
232 0
233 0
234 0
235 0
-237 0
238 0
239 0
240 0
-241 0
-242 0
243 0
244 0
-245 0
-246 0
247 0
-248 0
-405 406 0
-403 405 0
-402 403 0
-398 399 0
-396 397 0
-394 395 0
-389 390 0
-388 389 0
-387 389 0
-386 387 0
-384 386 0
-383 386 0
-382 383 0
-381 382 0
-379 380 0
-378 379 0
-376 377 0
-375 376 0
-374 375 0
-373 374 0
-372 376 0
-370 371 0
9 366 375 0
-365 367 0
-364 381 0
-362 363 0
-360 361 0
-359 361 0
-357 358 0
-356 359 0
-355 356 0
-354 364 0
-352 353 0
-351 352 0
-348 349 0
-347 348 0
-343 383 0
-342 343 0
-340 342 0
-339 340 0
-400 401 0
152 339 351 0
-336 337 0
-393 394 0
-335 336 0
-392 393 0
-333 336 0
-332 333 0
-139 331 338 351 0
-329 330 0
-366 367 0
-328 329 0
-327 329 0
-325 326 0
-324 325 0
-345 346 0
-321 322 0
-316 318 0
-334 335 0
-314 315 0
-312 313 0
-350 352 0
-326 327 0
-404 405 0
-309 310 0
-308 309 0
-197 307 0
-399 400 0
132 306 0
-132 306 0
198 305 0
-367 368 370 0
-198 305 0
-323 324 0
-152 303 337 350 360 0
145 265 268 0
-385 386 0
-358 359 0
-253 254 0
-391 392 0
201 317 391 0
-228 408 0
-301 302 0
-300 301 0
-299 300 0
-297 298 0
5 297 373 0
-263 277 0
-337 340 0
-296 298 0
-294 295 0
-236 263 341 346 356 0
-293 302 0
-390 392 0
-291 292 294 296 365 0
-290 292 368 0
-349 353 0
220 278 0
-128 290 295 371 0
-286 289 0
-292 293 0
-269 270 0
-353 354 0
-262 263 0
-273 275 0
-281 283 0
123 291 297 366 374 0
-288 289 0
-320 321 0
-220 278 282 0
-368 369 0
46 259 270 0
-46 259 267 0
-377 378 0
-51 251 252 332 338 344 0
-276 277 0
-65 251 273 333 338 354 0
-272 275 0
236 276 348 358 0
-222 280 0
-264 266 0
-251 254 0
-85 256 265 0
51 252 0
-261 262 0
128 299 377 0
-315 316 0
-254 260 0
-310 312 0
-303 309 0
-250 286 0
65 253 273 335 363 0
-341 342 0
-211 320 388 0
-319 320 0
-258 260 342 345 355 0
-252 253 275 334 347 362 0
-317 318 0
141 304 0
-331 332 350 0
199 412 0
85 255 256 0
-274 275 347 357 0
-260 262 0
-318 319 0
-257 258 0
126 257 274 0
-346 349 0
-255 258 0
-34 293 369 0
-259 260 342 345 355 0
-249 261 343 0
-265 266 0
249 261 272 382 0
-268 269 0
-266 267 0
-267 271 0
-210 287 0
-278 279 281 0
-287 288 0
-277 309 0
-298 299 372 0
250 288 0
-270 271 0
-9 303 341 365 372 0
-256 257 264 269 0
-282 283 0
-295 300 0
222 284 0
-279 280 0
-302 309 342 0
-322 323 0
-123 291 0
215 282 0
34 301 379 0
-283 284 0
103 311 384 0
-284 285 0
-380 381 0
-175 303 404 0
-275 276 0
179 410 0
25 328 384 0
-401 402 0
-280 285 0
-361 362 0
197 307 0
-371 378 0
-408 409 0
-313 315 0
-215 279 281 0
-344 345 0
139 303 331 334 360 0
-395 397 0
-338 339 0
-397 398 0
-5 290 294 296 370 373 0
116 314 384 0
-271 272 347 357 0
-126 255 274 0
-363 364 0
-311 312 0
-369 380 0
-243 303 396 0
40 411 0
-141 304 0
